# Solution for model obj
# Objective value = 170231
z 170231
x#1#8 1
x#1#7 0
x#1#6 0
x#1#5 0
x#1#4 0
x#1#3 1
x#1#2 0
x#2#1 0
x#2#8 0
x#2#7 0
x#2#6 0
x#2#5 1
x#2#4 1
x#2#3 0
x#3#1 0
x#3#8 0
x#3#7 1
x#3#6 0
x#3#5 0
x#3#4 0
x#3#2 1
x#4#1 0
x#4#8 1
x#4#7 0
x#4#6 1
x#4#5 0
x#4#3 0
x#4#2 0
x#5#1 0
x#5#8 0
x#5#7 1
x#5#6 1
x#5#4 0
x#5#3 0
x#5#2 0
x#6#1 1
x#6#8 0
x#6#7 0
x#6#5 0
x#6#4 0
x#6#3 0
x#6#2 1
x#7#1 1
x#7#8 0
x#7#6 0
x#7#5 0
x#7#4 1
x#7#3 0
x#7#2 0
x#8#1 0
x#8#7 0
x#8#6 0
x#8#5 1
x#8#4 0
x#8#3 1
x#8#2 0
f#1#2#8 0
f#1#2#7 0
f#1#2#6 0
f#1#2#5 615
f#1#2#4 23000
f#1#2#3 0
f#1#8#2 0
f#1#7#2 0
f#1#6#2 0
f#1#5#2 0
f#1#4#2 0
f#1#3#2 47615
f#1#1#2 0
f#1#3#8 0
f#1#3#7 61000
f#1#3#6 0
f#1#3#5 0
f#1#3#4 0
f#1#8#3 0
f#1#7#3 0
f#1#6#3 0
f#1#5#3 0
f#1#4#3 0
f#1#1#3 151615
f#1#4#8 0
f#1#4#7 0
f#1#4#6 0
f#1#4#5 0
f#1#8#4 0
f#1#7#4 0
f#1#6#4 0
f#1#5#4 0
f#1#1#4 0
f#1#5#8 0
f#1#5#7 0
f#1#5#6 41000
f#1#8#5 61385
f#1#7#5 0
f#1#6#5 0
f#1#1#5 0
f#1#6#8 0
f#1#6#7 0
f#1#8#6 0
f#1#7#6 0
f#1#1#6 0
f#1#7#8 0
f#1#8#7 0
f#1#1#7 0
f#1#1#8 82385
f#2#3#8 0
f#2#3#7 0
f#2#3#6 0
f#2#3#5 0
f#2#3#4 0
f#2#3#1 0
f#2#8#3 0
f#2#7#3 0
f#2#6#3 0
f#2#5#3 0
f#2#4#3 0
f#2#2#3 0
f#2#1#3 0
f#2#4#8 23000
f#2#4#7 0
f#2#4#6 13308
f#2#4#5 0
f#2#4#1 0
f#2#8#4 0
f#2#7#4 0
f#2#6#4 0
f#2#5#4 0
f#2#2#4 36308
f#2#1#4 0
f#2#5#8 0
f#2#5#7 39000
f#2#5#6 4692
f#2#5#1 0
f#2#8#5 0
f#2#7#5 0
f#2#6#5 0
f#2#2#5 64692
f#2#1#5 0
f#2#6#8 0
f#2#6#7 0
f#2#6#1 0
f#2#8#6 0
f#2#7#6 0
f#2#2#6 0
f#2#1#6 0
f#2#7#8 0
f#2#7#1 0
f#2#8#7 0
f#2#2#7 0
f#2#1#7 0
f#2#8#1 0
f#2#2#8 0
f#2#1#8 0
f#2#2#1 0
f#3#2#8 0
f#3#2#7 0
f#3#2#6 0
f#3#2#5 52615
f#3#2#4 42000
f#3#2#1 0
f#3#8#2 0
f#3#7#2 0
f#3#6#2 0
f#3#5#2 0
f#3#4#2 0
f#3#3#2 94615
f#3#1#2 0
f#3#4#8 22000
f#3#4#7 0
f#3#4#6 0
f#3#4#5 0
f#3#4#1 0
f#3#8#4 0
f#3#7#4 0
f#3#6#4 0
f#3#5#4 0
f#3#3#4 0
f#3#1#4 0
f#3#5#8 0
f#3#5#7 0
f#3#5#6 8615
f#3#5#1 0
f#3#8#5 0
f#3#7#5 0
f#3#6#5 0
f#3#3#5 0
f#3#1#5 0
f#3#6#8 0
f#3#6#7 0
f#3#6#1 8615
f#3#8#6 0
f#3#7#6 0
f#3#3#6 0
f#3#1#6 0
f#3#7#8 0
f#3#7#1 7385
f#3#8#7 0
f#3#3#7 49385
f#3#1#7 0
f#3#8#1 0
f#3#3#8 0
f#3#1#8 0
f#3#3#1 0
f#4#2#8 0
f#4#2#7 0
f#4#2#6 0
f#4#2#5 13308
f#4#2#3 0
f#4#2#1 0
f#4#8#2 0
f#4#7#2 0
f#4#6#2 33308
f#4#5#2 0
f#4#4#2 0
f#4#3#2 0
f#4#1#2 0
f#4#3#8 0
f#4#3#7 43000
f#4#3#6 0
f#4#3#5 0
f#4#3#1 0
f#4#8#3 42385
f#4#7#3 0
f#4#6#3 0
f#4#5#3 0
f#4#4#3 0
f#4#1#3 18615
f#4#5#8 0
f#4#5#7 0
f#4#5#6 0
f#4#5#1 0
f#4#8#5 26692
f#4#7#5 0
f#4#6#5 0
f#4#4#5 0
f#4#1#5 0
f#4#6#8 0
f#4#6#7 0
f#4#6#1 60615
f#4#8#6 0
f#4#7#6 0
f#4#4#6 150923
f#4#1#6 0
f#4#7#8 0
f#4#7#1 0
f#4#8#7 0
f#4#4#7 0
f#4#1#7 0
f#4#8#1 0
f#4#4#8 111077
f#4#1#8 0
f#4#4#1 0
f#5#2#8 0
f#5#2#7 0
f#5#2#6 0
f#5#2#4 12923
f#5#2#3 0
f#5#2#1 0
f#5#8#2 0
f#5#7#2 0
f#5#6#2 12923
f#5#5#2 0
f#5#4#2 0
f#5#3#2 0
f#5#1#2 0
f#5#3#8 0
f#5#3#7 0
f#5#3#6 0
f#5#3#4 0
f#5#3#1 0
f#5#8#3 0
f#5#7#3 0
f#5#6#3 0
f#5#5#3 0
f#5#4#3 0
f#5#1#3 0
f#5#4#8 0
f#5#4#7 0
f#5#4#6 0
f#5#4#1 0
f#5#8#4 0
f#5#7#4 27077
f#5#6#4 0
f#5#5#4 0
f#5#1#4 0
f#5#6#8 0
f#5#6#7 0
f#5#6#1 0
f#5#8#6 0
f#5#7#6 0
f#5#5#6 95923
f#5#1#6 0
f#5#7#8 0
f#5#7#1 0
f#5#8#7 0
f#5#5#7 87077
f#5#1#7 0
f#5#8#1 0
f#5#5#8 0
f#5#1#8 0
f#5#5#1 0
f#6#2#8 0
f#6#2#7 0
f#6#2#5 39000
f#6#2#4 37000
f#6#2#3 0
f#6#2#1 0
f#6#8#2 0
f#6#7#2 0
f#6#6#2 94000
f#6#5#2 0
f#6#4#2 0
f#6#3#2 0
f#6#1#2 0
f#6#3#8 0
f#6#3#7 0
f#6#3#5 0
f#6#3#4 0
f#6#3#1 0
f#6#8#3 0
f#6#7#3 0
f#6#6#3 0
f#6#5#3 0
f#6#4#3 0
f#6#1#3 0
f#6#4#8 0
f#6#4#7 0
f#6#4#5 0
f#6#4#1 0
f#6#8#4 0
f#6#7#4 0
f#6#6#4 0
f#6#5#4 0
f#6#1#4 0
f#6#5#8 0
f#6#5#7 21000
f#6#5#1 0
f#6#8#5 0
f#6#7#5 0
f#6#6#5 0
f#6#1#5 0
f#6#7#8 0
f#6#7#1 0
f#6#8#7 0
f#6#6#7 0
f#6#1#7 0
f#6#8#1 0
f#6#6#8 0
f#6#1#8 41000
f#6#6#1 101000
f#7#2#8 0
f#7#2#6 0
f#7#2#5 0
f#7#2#4 0
f#7#2#3 0
f#7#2#1 0
f#7#8#2 0
f#7#7#2 0
f#7#6#2 0
f#7#5#2 0
f#7#4#2 0
f#7#3#2 0
f#7#1#2 0
f#7#3#8 0
f#7#3#6 0
f#7#3#5 0
f#7#3#4 0
f#7#3#1 0
f#7#8#3 0
f#7#7#3 0
f#7#6#3 0
f#7#5#3 0
f#7#4#3 0
f#7#1#3 0
f#7#4#8 14154
f#7#4#6 0
f#7#4#5 0
f#7#4#1 0
f#7#8#4 0
f#7#7#4 14154
f#7#6#4 0
f#7#5#4 0
f#7#1#4 0
f#7#5#8 0
f#7#5#6 0
f#7#5#1 0
f#7#8#5 0
f#7#7#5 0
f#7#6#5 0
f#7#1#5 0
f#7#6#8 0
f#7#6#1 0
f#7#8#6 0
f#7#7#6 0
f#7#1#6 0
f#7#8#1 0
f#7#7#8 0
f#7#1#8 46846
f#7#7#1 68846
f#8#2#7 0
f#8#2#6 0
f#8#2#5 0
f#8#2#4 19000
f#8#2#3 0
f#8#2#1 0
f#8#8#2 0
f#8#7#2 0
f#8#6#2 0
f#8#5#2 0
f#8#4#2 0
f#8#3#2 19000
f#8#1#2 0
f#8#3#7 16846
f#8#3#6 0
f#8#3#5 0
f#8#3#4 0
f#8#3#1 0
f#8#8#3 55846
f#8#7#3 0
f#8#6#3 0
f#8#5#3 0
f#8#4#3 0
f#8#1#3 0
f#8#4#7 0
f#8#4#6 0
f#8#4#5 0
f#8#4#1 0
f#8#8#4 0
f#8#7#4 0
f#8#6#4 0
f#8#5#4 0
f#8#1#4 0
f#8#5#7 23154
f#8#5#6 20000
f#8#5#1 0
f#8#8#5 60154
f#8#7#5 0
f#8#6#5 0
f#8#1#5 0
f#8#6#7 0
f#8#6#1 0
f#8#8#6 0
f#8#7#6 0
f#8#1#6 0
f#8#7#1 0
f#8#8#7 0
f#8#1#7 0
f#8#8#1 0
